12
0 4 30 48 12 91 39 75 18 76 56 72 
80 0 83 60 20 31 37 5 79 1 17 85 
19 27 0 44 54 4 87 3 39 18 53 27 
18 93 46 0 52 20 8 85 78 83 6 18 
20 69 12 36 0 2 41 51 52 26 7 33 
34 21 80 14 58 0 27 71 33 59 20 68 
22 90 88 37 42 55 0 14 48 29 87 84 
85 95 10 10 40 67 71 0 92 4 64 4 
8 57 28 88 21 60 82 46 0 52 42 78 
64 65 22 44 75 50 65 53 100 0 22 54 
85 28 25 30 34 28 69 98 67 60 0 56 
88 9 21 73 95 54 77 20 66 66 46 0 
